Geometry = GenFormat {
  <<< "geom.out.gen"
}

Driver = VelocityVerlet {
  TimeStep [fs] = 1.0
  Thermostat = NoseHoover {
    Temperature [Kelvin] = 298.0
    CouplingStrength [cm^-1] = 3200
    ChainLength = 3
    Order = 3
    IntegratorSteps = 2
  }
  Steps = 5
  MovedAtoms = 1:-1
  MDRestartFrequency = 100
  OutputPrefix = "f1ec"
}

Hamiltonian = DFTB {
  SCC = Yes
  MaxSccIterations = 1
  SlaterKosterFiles = Type2FileNames {
    Prefix = "./3ob/"
    Separator = "-"
    Suffix = ".skf"
  }
  MaxAngularMomentum {
    O = "p"
    H = "s"
    C = "p"
    F = "p"
  }
  Filling = Fermi {
    Temperature [Kelvin] = 298.0
  }
  KPointsAndWeights = SupercellFolding {
    1 0 0
    0 1 0
    0 0 1
    0 0 0
  }
  Dispersion = LennardJones {
    Parameters = UFFParameters {}
  }
  ThirdOrderFull = Yes
  HubbardDerivs {
    O = -0.1575
    H = -0.1857
    C = -0.1492
    F = -0.1623
  }
  HCorrection = Damping {
    Exponent = 4.00
  }
  ForceEvaluation = Dynamics
  ReadInitialCharges = Yes
}

Analysis {
  CalculateForces = Yes
}

Options {
  WriteResultsTag = Yes
  WriteChargesAsText = Yes
  ReadChargesAsText = Yes
}

ParserOptions {
  ParserVersion = 12
}

Parallel = {
  UseOmpThreads = Yes
}